unknown 172 2 172 100000000
2 2 2 2 2 2 2 2 2 2 2 2 2 2 2 2 2 2 2 2 2 2 2 2 2 2 2 2 2 2 2 2 2 2 2 2 2 2 2 2 2 2 2 2 2 2 2 2 2 2 2 2 2 2 2 2 2 2 2 2 2 2 2 2 2 2 2 2 2 2 2 2 2 2 2 2 2 2 2 2 2 2 2 2 2 2 2 2 2 2 2 2 2 2 2 2 2 2 2 2 2 2 2 2 2 2 2 2 2 2 2 2 2 2 2 2 2 2 2 2 2 2 2 2 2 2 2 2 2 2 2 2 2 2 2 2 2 2 2 2 2 2 2 2 2 2 2 2 2 2 2 2 2 2 2 2 2 2 2 2 2 2 2 2 2 2 2 2 2 2 2 2
3 167 169 0 0 4
0 0 1 100
0 1 0 100
1 0 0 100
1 1 0 100
2 0 1 0 2
0 0 100
1 1 100
3 86 87 2 0 4
0 0 1 100
0 1 0 100
1 0 0 100
1 1 0 100
3 24 101 3 0 4
0 0 1 100
0 1 0 100
1 0 0 100
1 1 0 100
3 166 35 4 0 4
0 0 1 100
0 1 0 100
1 0 0 100
1 1 0 100
3 36 37 5 0 4
0 0 1 100
0 1 0 100
1 0 0 100
1 1 0 100
4 81 82 83 6 0 8
0 0 0 1 100
0 0 1 0 100
0 1 0 0 100
0 1 1 0 100
1 0 0 0 100
1 0 1 0 100
1 1 0 0 100
1 1 1 0 100
3 62 67 7 0 4
0 0 1 100
0 1 0 100
1 0 0 100
1 1 0 100
3 138 110 8 0 4
0 0 1 100
0 1 0 100
1 0 0 100
1 1 0 100
3 88 89 9 0 4
0 0 1 100
0 1 0 100
1 0 0 100
1 1 0 100
3 112 113 10 0 4
0 0 1 100
0 1 0 100
1 0 0 100
1 1 0 100
3 96 97 11 0 4
0 0 1 100
0 1 0 100
1 0 0 100
1 1 0 100
3 138 107 12 0 4
0 0 1 100
0 1 0 100
1 0 0 100
1 1 0 100
3 135 116 13 0 4
0 0 1 100
0 1 0 100
1 0 0 100
1 1 0 100
3 114 115 14 0 4
0 0 1 100
0 1 0 100
1 0 0 100
1 1 0 100
3 90 91 15 0 4
0 0 1 100
0 1 0 100
1 0 0 100
1 1 0 100
3 39 40 16 0 4
0 0 1 100
0 1 0 100
1 0 0 100
1 1 0 100
3 102 166 17 0 4
0 0 1 100
0 1 0 100
1 0 0 100
1 1 0 100
3 84 85 18 0 4
0 0 1 100
0 1 0 100
1 0 0 100
1 1 0 100
3 108 109 19 0 4
0 0 1 100
0 1 0 100
1 0 0 100
1 1 0 100
3 92 93 20 0 4
0 0 1 100
0 1 0 100
1 0 0 100
1 1 0 100
3 169 158 21 0 4
0 0 1 100
0 1 0 100
1 0 0 100
1 1 0 100
2 21 22 0 2
0 0 100
1 1 100
3 157 166 23 0 4
0 0 1 100
0 1 0 100
1 0 0 100
1 1 0 100
2 23 24 0 2
0 0 100
1 1 100
3 119 100 25 0 4
0 0 1 100
0 1 0 100
1 0 0 100
1 1 0 100
3 77 78 26 0 4
0 0 1 100
0 1 0 100
1 0 0 100
1 1 0 100
3 103 104 27 0 4
0 0 1 100
0 1 0 100
1 0 0 100
1 1 0 100
3 105 106 28 0 4
0 0 1 100
0 1 0 100
1 0 0 100
1 1 0 100
3 120 138 29 0 4
0 0 1 100
0 1 0 100
1 0 0 100
1 1 0 100
3 44 45 30 0 4
0 0 1 100
0 1 0 100
1 0 0 100
1 1 0 100
3 43 142 31 0 4
0 0 1 100
0 1 0 100
1 0 0 100
1 1 0 100
3 41 42 32 0 4
0 0 1 100
0 1 0 100
1 0 0 100
1 1 0 100
3 94 95 33 0 4
0 0 1 100
0 1 0 100
1 0 0 100
1 1 0 100
3 75 76 34 0 4
0 0 1 100
0 1 0 100
1 0 0 100
1 1 0 100
3 157 169 35 0 4
0 0 1 100
0 1 1 100
1 0 1 100
1 1 0 100
4 169 140 141 36 0 8
0 0 0 1 100
0 0 1 1 100
0 1 0 1 100
0 1 1 1 100
1 0 0 1 100
1 0 1 1 100
1 1 0 1 100
1 1 1 0 100
4 168 139 142 37 0 8
0 0 0 1 100
0 0 1 1 100
0 1 0 1 100
0 1 1 1 100
1 0 0 1 100
1 0 1 1 100
1 1 0 1 100
1 1 1 0 100
4 157 158 168 38 0 8
0 0 0 1 100
0 0 1 1 100
0 1 0 1 100
0 1 1 1 100
1 0 0 1 100
1 0 1 1 100
1 1 0 1 100
1 1 1 0 100
4 157 140 142 39 0 8
0 0 0 1 100
0 0 1 1 100
0 1 0 1 100
0 1 1 1 100
1 0 0 1 100
1 0 1 1 100
1 1 0 1 100
1 1 1 0 100
5 163 167 139 141 40 0 16
0 0 0 0 1 100
0 0 0 1 1 100
0 0 1 0 1 100
0 0 1 1 1 100
0 1 0 0 1 100
0 1 0 1 1 100
0 1 1 0 1 100
0 1 1 1 1 100
1 0 0 0 1 100
1 0 0 1 1 100
1 0 1 0 1 100
1 0 1 1 1 100
1 1 0 0 1 100
1 1 0 1 1 100
1 1 1 0 1 100
1 1 1 1 0 100
3 166 139 41 0 4
0 0 1 100
0 1 1 100
1 0 1 100
1 1 0 100
4 159 161 140 42 0 8
0 0 0 1 100
0 0 1 1 100
0 1 0 1 100
0 1 1 1 100
1 0 0 1 100
1 0 1 1 100
1 1 0 1 100
1 1 1 0 100
3 167 169 43 0 4
0 0 1 100
0 1 1 100
1 0 1 100
1 1 0 100
3 167 169 44 0 4
0 0 1 100
0 1 1 100
1 0 1 100
1 1 0 100
3 171 142 45 0 4
0 0 1 100
0 1 1 100
1 0 1 100
1 1 0 100
5 29 136 167 169 46 0 16
0 0 0 0 1 100
0 0 0 1 1 100
0 0 1 0 1 100
0 0 1 1 1 100
0 1 0 0 1 100
0 1 0 1 1 100
0 1 1 0 1 100
0 1 1 1 1 100
1 0 0 0 1 100
1 0 0 1 1 100
1 0 1 0 1 100
1 0 1 1 1 100
1 1 0 0 1 100
1 1 0 1 1 100
1 1 1 0 1 100
1 1 1 1 0 100
4 27 134 156 47 0 8
0 0 0 1 100
0 0 1 1 100
0 1 0 1 100
0 1 1 1 100
1 0 0 1 100
1 0 1 1 100
1 1 0 1 100
1 1 1 0 100
4 28 167 171 48 0 8
0 0 0 1 100
0 0 1 1 100
0 1 0 1 100
0 1 1 1 100
1 0 0 1 100
1 0 1 1 100
1 1 0 1 100
1 1 1 0 100
4 2 134 156 49 0 8
0 0 0 1 100
0 0 1 1 100
0 1 0 1 100
0 1 1 1 100
1 0 0 1 100
1 0 1 1 100
1 1 0 1 100
1 1 1 0 100
4 20 134 156 50 0 8
0 0 0 1 100
0 0 1 1 100
0 1 0 1 100
0 1 1 1 100
1 0 0 1 100
1 0 1 1 100
1 1 0 1 100
1 1 1 0 100
3 34 171 51 0 4
0 0 1 100
0 1 1 100
1 0 1 100
1 1 0 100
4 162 167 169 52 0 8
0 0 0 1 100
0 0 1 1 100
0 1 0 1 100
0 1 1 1 100
1 0 0 1 100
1 0 1 1 100
1 1 0 1 100
1 1 1 0 100
4 134 167 169 53 0 8
0 0 0 1 100
0 0 1 1 100
0 1 0 1 100
0 1 1 1 100
1 0 0 1 100
1 0 1 1 100
1 1 0 1 100
1 1 1 0 100
4 135 138 30 54 0 8
0 0 0 1 100
0 0 1 1 100
0 1 0 1 100
0 1 1 1 100
1 0 0 1 100
1 0 1 1 100
1 1 0 1 100
1 1 1 0 100
4 18 134 156 55 0 8
0 0 0 1 100
0 0 1 1 100
0 1 0 1 100
0 1 1 1 100
1 0 0 1 100
1 0 1 1 100
1 1 0 1 100
1 1 1 0 100
4 26 134 156 56 0 8
0 0 0 1 100
0 0 1 1 100
0 1 0 1 100
0 1 1 1 100
1 0 0 1 100
1 0 1 1 100
1 1 0 1 100
1 1 1 0 100
4 7 134 156 57 0 8
0 0 0 1 100
0 0 1 1 100
0 1 0 1 100
0 1 1 1 100
1 0 0 1 100
1 0 1 1 100
1 1 0 1 100
1 1 1 0 100
2 125 58 0 2
0 0 100
1 1 100
2 124 59 0 2
0 0 100
1 1 100
2 123 60 0 2
0 0 100
1 1 100
2 133 61 0 2
0 0 100
1 1 100
3 6 142 62 0 4
0 0 1 100
0 1 1 100
1 0 1 100
1 1 0 100
2 132 63 0 2
0 0 100
1 1 100
2 131 64 0 2
0 0 100
1 1 100
2 130 65 0 2
0 0 100
1 1 100
2 129 66 0 2
0 0 100
1 1 100
3 167 5 67 0 4
0 0 1 100
0 1 1 100
1 0 1 100
1 1 0 100
2 128 68 0 2
0 0 100
1 1 100
2 127 69 0 2
0 0 100
1 1 100
2 126 70 0 2
0 0 100
1 1 100
2 122 71 0 2
0 0 100
1 1 100
2 121 72 0 2
0 0 100
1 1 100
3 11 136 73 0 4
0 0 1 100
0 1 1 100
1 0 1 100
1 1 0 100
3 135 9 74 0 4
0 0 1 100
0 1 1 100
1 0 1 100
1 1 0 100
3 33 138 75 0 4
0 0 1 100
0 1 1 100
1 0 1 100
1 1 0 100
5 137 140 142 53 76 0 16
0 0 0 0 1 100
0 0 0 1 1 100
0 0 1 0 1 100
0 0 1 1 1 100
0 1 0 0 1 100
0 1 0 1 1 100
0 1 1 0 1 100
0 1 1 1 1 100
1 0 0 0 1 100
1 0 0 1 1 100
1 0 1 0 1 100
1 0 1 1 1 100
1 1 0 0 1 100
1 1 0 1 1 100
1 1 1 0 1 100
1 1 1 1 0 100
4 139 141 52 77 0 8
0 0 0 1 100
0 0 1 1 100
0 1 0 1 100
0 1 1 1 100
1 0 0 1 100
1 0 1 1 100
1 1 0 1 100
1 1 1 0 100
4 25 140 142 78 0 8
0 0 0 1 100
0 0 1 1 100
0 1 0 1 100
0 1 1 1 100
1 0 0 1 100
1 0 1 1 100
1 1 0 1 100
1 1 1 0 100
3 15 142 79 0 4
0 0 1 100
0 1 1 100
1 0 1 100
1 1 0 100
5 167 169 12 13 80 0 16
0 0 0 0 1 100
0 0 0 1 1 100
0 0 1 0 1 100
0 0 1 1 1 100
0 1 0 0 1 100
0 1 0 1 1 100
0 1 1 0 1 100
0 1 1 1 1 100
1 0 0 0 1 100
1 0 0 1 1 100
1 0 1 0 1 100
1 0 1 1 1 100
1 1 0 0 1 100
1 1 0 1 1 100
1 1 1 0 1 100
1 1 1 1 0 100
5 162 166 169 139 81 0 16
0 0 0 0 1 100
0 0 0 1 1 100
0 0 1 0 1 100
0 0 1 1 1 100
0 1 0 0 1 100
0 1 0 1 1 100
0 1 1 0 1 100
0 1 1 1 1 100
1 0 0 0 1 100
1 0 0 1 1 100
1 0 1 0 1 100
1 0 1 1 1 100
1 1 0 0 1 100
1 1 0 1 1 100
1 1 1 0 1 100
1 1 1 1 0 100
4 158 168 3 82 0 8
0 0 0 1 100
0 0 1 1 100
0 1 0 1 100
0 1 1 1 100
1 0 0 1 100
1 0 1 1 100
1 1 0 1 100
1 1 1 0 100
4 160 140 4 83 0 8
0 0 0 1 100
0 0 1 1 100
0 1 0 1 100
0 1 1 1 100
1 0 0 1 100
1 0 1 1 100
1 1 0 1 100
1 1 1 0 100
3 17 142 84 0 4
0 0 1 100
0 1 1 100
1 0 1 100
1 1 0 100
3 169 16 85 0 4
0 0 1 100
0 1 1 100
1 0 1 100
1 1 0 100
4 161 140 22 86 0 8
0 0 0 1 100
0 0 1 1 100
0 1 0 1 100
0 1 1 1 100
1 0 0 1 100
1 0 1 1 100
1 1 0 1 100
1 1 1 0 100
3 0 139 87 0 4
0 0 1 100
0 1 1 100
1 0 1 100
1 1 0 100
4 8 167 169 88 0 8
0 0 0 1 100
0 0 1 1 100
0 1 0 1 100
0 1 1 1 100
1 0 0 1 100
1 0 1 1 100
1 1 0 1 100
1 1 1 0 100
4 171 138 142 89 0 8
0 0 0 1 100
0 0 1 1 100
0 1 0 1 100
0 1 1 1 100
1 0 0 1 100
1 0 1 1 100
1 1 0 1 100
1 1 1 0 100
3 14 136 90 0 4
0 0 1 100
0 1 1 100
1 0 1 100
1 1 0 100
4 135 171 138 91 0 8
0 0 0 1 100
0 0 1 1 100
0 1 0 1 100
0 1 1 1 100
1 0 0 1 100
1 0 1 1 100
1 1 0 1 100
1 1 1 0 100
4 139 142 1 92 0 8
0 0 0 1 100
0 0 1 1 100
0 1 0 1 100
0 1 1 1 100
1 0 0 1 100
1 0 1 1 100
1 1 0 1 100
1 1 1 0 100
3 19 167 93 0 4
0 0 1 100
0 1 1 100
1 0 1 100
1 1 0 100
4 32 168 142 94 0 8
0 0 0 1 100
0 0 1 1 100
0 1 0 1 100
0 1 1 1 100
1 0 0 1 100
1 0 1 1 100
1 1 0 1 100
1 1 1 0 100
3 136 31 95 0 4
0 0 1 100
0 1 1 100
1 0 1 100
1 1 0 100
4 10 167 169 96 0 8
0 0 0 1 100
0 0 1 1 100
0 1 0 1 100
0 1 1 1 100
1 0 0 1 100
1 0 1 1 100
1 1 0 1 100
1 1 1 0 100
4 171 138 142 97 0 8
0 0 0 1 100
0 0 1 1 100
0 1 0 1 100
0 1 1 1 100
1 0 0 1 100
1 0 1 1 100
1 1 0 1 100
1 1 1 0 100
5 135 162 167 169 98 0 16
0 0 0 0 1 100
0 0 0 1 1 100
0 0 1 0 1 100
0 0 1 1 1 100
0 1 0 0 1 100
0 1 0 1 1 100
0 1 1 0 1 100
0 1 1 1 1 100
1 0 0 0 1 100
1 0 0 1 1 100
1 0 1 0 1 100
1 0 1 1 1 100
1 1 0 0 1 100
1 1 0 1 1 100
1 1 1 0 1 100
1 1 1 1 0 100
5 170 137 140 142 99 0 16
0 0 0 0 1 100
0 0 0 1 1 100
0 0 1 0 1 100
0 0 1 1 1 100
0 1 0 0 1 100
0 1 0 1 1 100
0 1 1 0 1 100
0 1 1 1 1 100
1 0 0 0 1 100
1 0 0 1 1 100
1 0 1 0 1 100
1 0 1 1 1 100
1 1 0 0 1 100
1 1 0 1 1 100
1 1 1 0 1 100
1 1 1 1 0 100
3 160 166 100 0 4
0 0 1 100
0 1 1 100
1 0 1 100
1 1 0 100
3 166 140 101 0 4
0 0 1 100
0 1 1 100
1 0 1 100
1 1 0 100
4 161 140 22 102 0 8
0 0 0 1 100
0 0 1 1 100
0 1 0 1 100
0 1 1 1 100
1 0 0 1 100
1 0 1 1 100
1 1 0 1 100
1 1 1 0 100
4 161 140 22 103 0 8
0 0 0 1 100
0 0 1 1 100
0 1 0 1 100
0 1 1 1 100
1 0 0 1 100
1 0 1 1 100
1 1 0 1 100
1 1 1 0 100
4 166 169 139 104 0 8
0 0 0 1 100
0 0 1 1 100
0 1 0 1 100
0 1 1 1 100
1 0 0 1 100
1 0 1 1 100
1 1 0 1 100
1 1 1 0 100
5 156 160 138 22 105 0 16
0 0 0 0 1 100
0 0 0 1 1 100
0 0 1 0 1 100
0 0 1 1 1 100
0 1 0 0 1 100
0 1 0 1 1 100
0 1 1 0 1 100
0 1 1 1 1 100
1 0 0 0 1 100
1 0 0 1 1 100
1 0 1 0 1 100
1 0 1 1 1 100
1 1 0 0 1 100
1 1 0 1 1 100
1 1 1 0 1 100
1 1 1 1 0 100
4 134 169 137 106 0 8
0 0 0 1 100
0 0 1 1 100
0 1 0 1 100
0 1 1 1 100
1 0 0 1 100
1 0 1 1 100
1 1 0 1 100
1 1 1 0 100
3 140 142 107 0 4
0 0 1 100
0 1 1 100
1 0 1 100
1 1 0 100
4 169 139 141 108 0 8
0 0 0 1 100
0 0 1 1 100
0 1 0 1 100
0 1 1 1 100
1 0 0 1 100
1 0 1 1 100
1 1 0 1 100
1 1 1 0 100
4 140 142 38 109 0 8
0 0 0 1 100
0 0 1 1 100
0 1 0 1 100
0 1 1 1 100
1 0 0 1 100
1 0 1 1 100
1 1 0 1 100
1 1 1 0 100
5 163 170 140 142 110 0 16
0 0 0 0 1 100
0 0 0 1 1 100
0 0 1 0 1 100
0 0 1 1 1 100
0 1 0 0 1 100
0 1 0 1 1 100
0 1 1 0 1 100
0 1 1 1 1 100
1 0 0 0 1 100
1 0 0 1 1 100
1 0 1 0 1 100
1 0 1 1 1 100
1 1 0 0 1 100
1 1 0 1 1 100
1 1 1 0 1 100
1 1 1 1 0 100
4 163 167 169 111 0 8
0 0 0 1 100
0 0 1 1 100
0 1 0 1 100
0 1 1 1 100
1 0 0 1 100
1 0 1 1 100
1 1 0 1 100
1 1 1 0 100
3 171 138 112 0 4
0 0 1 100
0 1 1 100
1 0 1 100
1 1 0 100
4 134 140 142 113 0 8
0 0 0 1 100
0 0 1 1 100
0 1 0 1 100
0 1 1 1 100
1 0 0 1 100
1 0 1 1 100
1 1 0 1 100
1 1 1 0 100
3 171 138 114 0 4
0 0 1 100
0 1 1 100
1 0 1 100
1 1 0 100
4 137 140 111 115 0 8
0 0 0 1 100
0 0 1 1 100
0 1 0 1 100
0 1 1 1 100
1 0 0 1 100
1 0 1 1 100
1 1 0 1 100
1 1 1 0 100
3 136 171 116 0 4
0 0 1 100
0 1 1 100
1 0 1 100
1 1 0 100
5 134 165 167 169 117 0 16
0 0 0 0 1 100
0 0 0 1 1 100
0 0 1 0 1 100
0 0 1 1 1 100
0 1 0 0 1 100
0 1 0 1 1 100
0 1 1 0 1 100
0 1 1 1 1 100
1 0 0 0 1 100
1 0 0 1 1 100
1 0 1 0 1 100
1 0 1 1 1 100
1 1 0 0 1 100
1 1 0 1 1 100
1 1 1 0 1 100
1 1 1 1 0 100
5 171 137 140 142 118 0 16
0 0 0 0 1 100
0 0 0 1 1 100
0 0 1 0 1 100
0 0 1 1 1 100
0 1 0 0 1 100
0 1 0 1 1 100
0 1 1 0 1 100
0 1 1 1 1 100
1 0 0 0 1 100
1 0 0 1 1 100
1 0 1 0 1 100
1 0 1 1 1 100
1 1 0 0 1 100
1 1 0 1 1 100
1 1 1 0 1 100
1 1 1 1 0 100
3 23 21 119 0 4
0 0 1 100
0 1 1 100
1 0 1 100
1 1 0 100
3 134 162 120 0 4
0 0 1 100
0 1 1 100
1 0 1 100
1 1 0 100
5 171 138 142 49 121 0 16
0 0 0 0 1 100
0 0 0 1 1 100
0 0 1 0 1 100
0 0 1 1 1 100
0 1 0 0 1 100
0 1 0 1 1 100
0 1 1 0 1 100
0 1 1 1 1 100
1 0 0 0 1 100
1 0 0 1 1 100
1 0 1 0 1 100
1 0 1 1 1 100
1 1 0 0 1 100
1 1 0 1 1 100
1 1 1 0 1 100
1 1 1 1 0 100
4 171 138 57 122 0 8
0 0 0 1 100
0 0 1 1 100
0 1 0 1 100
0 1 1 1 100
1 0 0 1 100
1 0 1 1 100
1 1 0 1 100
1 1 1 0 100
5 170 140 142 46 123 0 16
0 0 0 0 1 100
0 0 0 1 1 100
0 0 1 0 1 100
0 0 1 1 1 100
0 1 0 0 1 100
0 1 0 1 1 100
0 1 1 0 1 100
0 1 1 1 1 100
1 0 0 0 1 100
1 0 0 1 1 100
1 0 1 0 1 100
1 0 1 1 1 100
1 1 0 0 1 100
1 1 0 1 1 100
1 1 1 0 1 100
1 1 1 1 0 100
3 51 54 124 0 4
0 0 1 100
0 1 0 100
1 0 0 100
1 1 0 100
3 98 99 125 0 4
0 0 1 100
0 1 1 100
1 0 1 100
1 1 0 100
3 73 74 126 0 4
0 0 1 100
0 1 0 100
1 0 0 100
1 1 0 100
3 79 80 127 0 4
0 0 1 100
0 1 0 100
1 0 0 100
1 1 0 100
4 171 138 55 128 0 8
0 0 0 1 100
0 0 1 1 100
0 1 0 1 100
0 1 1 1 100
1 0 0 1 100
1 0 1 1 100
1 1 0 1 100
1 1 1 0 100
4 171 138 50 129 0 8
0 0 0 1 100
0 0 1 1 100
0 1 0 1 100
0 1 1 1 100
1 0 0 1 100
1 0 1 1 100
1 1 0 1 100
1 1 1 0 100
4 171 138 56 130 0 8
0 0 0 1 100
0 0 1 1 100
0 1 0 1 100
0 1 1 1 100
1 0 0 1 100
1 0 1 1 100
1 1 0 1 100
1 1 1 0 100
5 171 138 142 47 131 0 16
0 0 0 0 1 100
0 0 0 1 1 100
0 0 1 0 1 100
0 0 1 1 1 100
0 1 0 0 1 100
0 1 0 1 1 100
0 1 1 0 1 100
0 1 1 1 1 100
1 0 0 0 1 100
1 0 0 1 1 100
1 0 1 0 1 100
1 0 1 1 1 100
1 1 0 0 1 100
1 1 0 1 1 100
1 1 1 0 1 100
1 1 1 1 0 100
3 117 118 132 0 4
0 0 1 100
0 1 1 100
1 0 1 100
1 1 0 100
4 140 142 48 133 0 8
0 0 0 1 100
0 0 1 1 100
0 1 0 1 100
0 1 1 1 100
1 0 0 1 100
1 0 1 1 100
1 1 0 1 100
1 1 1 0 100
1 134 0 1
1 1
2 134 135 0 2
0 0 100
1 1 100
1 136 0 1
0 8
1 137 0 2
0 9
1 7
2 137 138 0 2
0 0 100
1 1 100
1 139 0 1
0 8
2 139 140 0 2
0 0 100
1 1 100
1 141 0 2
0 3
1 7
2 141 142 0 2
0 0 100
1 1 100
2 72 143 0 2
0 0 100
1 1 100
2 71 144 0 2
0 0 100
1 1 100
2 60 145 0 2
0 0 100
1 1 100
2 59 146 0 2
0 0 100
1 1 100
2 58 147 0 2
0 0 100
1 1 100
2 70 148 0 2
0 0 100
1 1 100
2 69 149 0 2
0 0 100
1 1 100
2 68 150 0 2
0 0 100
1 1 100
2 66 151 0 2
0 0 100
1 1 100
2 65 152 0 2
0 0 100
1 1 100
2 64 153 0 2
0 0 100
1 1 100
2 63 154 0 2
0 0 100
1 1 100
2 61 155 0 2
0 0 100
1 1 100
2 136 156 0 2
0 0 100
1 1 100
1 157 0 2
0 5
1 8
1 158 0 2
0 3
1 3
2 158 159 0 2
0 0 100
1 1 100
1 160 0 2
0 3
1 8
2 160 161 0 2
0 0 100
1 1 100
1 162 0 2
0 9
1 4
2 162 163 0 2
0 0 100
1 1 100
1 164 0 2
0 5
1 1
2 164 165 0 2
0 0 100
1 1 100
1 166 0 1
1 3
2 166 167 0 2
0 0 100
1 1 100
1 168 0 2
0 2
1 7
2 168 169 0 2
0 0 100
1 1 100
1 170 0 2
0 3
1 1
2 170 171 0 2
0 0 100
1 1 100
